\ Generated by MPModelProtoExporter
\   Name             : 
\   Format           : Free
\   Constraints      : 94
\   Variables        : 108
\     Binary         : 36
\     Integer        : 72
\     Continuous     : 0
Minimize
 Obj: +12 tq_SKU001_WH_BJ_WH_GZ +8.5 tq_SKU001_WH_BJ_WH_SH +12 tq_SKU001_WH_GZ_WH_BJ +6.5 tq_SKU001_WH_GZ_WH_SH +8.5 tq_SKU001_WH_SH_WH_BJ +6.5 tq_SKU001_WH_SH_WH_GZ +12 tq_SKU002_WH_BJ_WH_GZ +8.5 tq_SKU002_WH_BJ_WH_SH +12 tq_SKU002_WH_GZ_WH_BJ +6.5 tq_SKU002_WH_GZ_WH_SH +8.5 tq_SKU002_WH_SH_WH_BJ +6.5 tq_SKU002_WH_SH_WH_GZ +12 tq_SKU003_WH_BJ_WH_GZ +8.5 tq_SKU003_WH_BJ_WH_SH +12 tq_SKU003_WH_GZ_WH_BJ +6.5 tq_SKU003_WH_GZ_WH_SH +8.5 tq_SKU003_WH_SH_WH_BJ +6.5 tq_SKU003_WH_SH_WH_GZ +12 tq_SKU004_WH_BJ_WH_GZ +8.5 tq_SKU004_WH_BJ_WH_SH +12 tq_SKU004_WH_GZ_WH_BJ +6.5 tq_SKU004_WH_GZ_WH_SH +8.5 tq_SKU004_WH_SH_WH_BJ +6.5 tq_SKU004_WH_SH_WH_GZ +12 tq_SKU005_WH_BJ_WH_GZ +8.5 tq_SKU005_WH_BJ_WH_SH +12 tq_SKU005_WH_GZ_WH_BJ +6.5 tq_SKU005_WH_GZ_WH_SH +8.5 tq_SKU005_WH_SH_WH_BJ +6.5 tq_SKU005_WH_SH_WH_GZ +12 tq_SKU006_WH_BJ_WH_GZ +8.5 tq_SKU006_WH_BJ_WH_SH +12 tq_SKU006_WH_GZ_WH_BJ +6.5 tq_SKU006_WH_GZ_WH_SH +8.5 tq_SKU006_WH_SH_WH_BJ +6.5 tq_SKU006_WH_SH_WH_GZ +2.5 ei_SKU001_WH_BJ +2.2 ei_SKU001_WH_GZ +2.8 ei_SKU001_WH_SH +1.8 ei_SKU002_WH_BJ +1.6 ei_SKU002_WH_GZ +2 ei_SKU002_WH_SH +1.5 ei_SKU003_WH_BJ +1.3 ei_SKU003_WH_GZ +1.6 ei_SKU003_WH_SH +2 ei_SKU004_WH_BJ +1.8 ei_SKU004_WH_GZ +2.2 ei_SKU004_WH_SH +5 ei_SKU005_WH_BJ +4.8 ei_SKU005_WH_GZ +5.5 ei_SKU005_WH_SH +3 ei_SKU006_WH_BJ +2.8 ei_SKU006_WH_GZ +3.2 ei_SKU006_WH_SH +15 sq_SKU001_WH_BJ +14 sq_SKU001_WH_GZ +16 sq_SKU001_WH_SH +10 sq_SKU002_WH_BJ +9.5 sq_SKU002_WH_GZ +11 sq_SKU002_WH_SH +8 sq_SKU003_WH_BJ +7.5 sq_SKU003_WH_GZ +9 sq_SKU003_WH_SH +12 sq_SKU004_WH_BJ +11.5 sq_SKU004_WH_GZ +13 sq_SKU004_WH_SH +30 sq_SKU005_WH_BJ +28 sq_SKU005_WH_GZ +32 sq_SKU005_WH_SH +18 sq_SKU006_WH_BJ +17 sq_SKU006_WH_GZ +20 sq_SKU006_WH_SH 
Subject to
 auto_c_000000000: -1 tq_SKU001_WH_BJ_WH_GZ -1 tq_SKU001_WH_BJ_WH_SH +1 tq_SKU001_WH_GZ_WH_BJ +1 tq_SKU001_WH_SH_WH_BJ +1 ei_SKU001_WH_BJ -1 sq_SKU001_WH_BJ  = -250
 auto_c_000000001: +1 tq_SKU001_WH_GZ_WH_BJ -100000 is_SKU001_WH_GZ_WH_BJ  <= 0
 auto_c_000000002: +1 tq_SKU001_WH_GZ_WH_BJ -10 is_SKU001_WH_GZ_WH_BJ  >= 0
 auto_c_000000003: +1 tq_SKU001_WH_SH_WH_BJ -100000 is_SKU001_WH_SH_WH_BJ  <= 0
 auto_c_000000004: +1 tq_SKU001_WH_SH_WH_BJ -10 is_SKU001_WH_SH_WH_BJ  >= 0
 auto_c_000000005: +1 tq_SKU001_WH_BJ_WH_GZ -1 tq_SKU001_WH_GZ_WH_BJ -1 tq_SKU001_WH_GZ_WH_SH +1 tq_SKU001_WH_SH_WH_GZ +1 ei_SKU001_WH_GZ -1 sq_SKU001_WH_GZ  = 50
 auto_c_000000006: +1 tq_SKU001_WH_BJ_WH_GZ -100000 is_SKU001_WH_BJ_WH_GZ  <= 0
 auto_c_000000007: +1 tq_SKU001_WH_BJ_WH_GZ -10 is_SKU001_WH_BJ_WH_GZ  >= 0
 auto_c_000000008: +1 tq_SKU001_WH_SH_WH_GZ -100000 is_SKU001_WH_SH_WH_GZ  <= 0
 auto_c_000000009: +1 tq_SKU001_WH_SH_WH_GZ -10 is_SKU001_WH_SH_WH_GZ  >= 0
 auto_c_000000010: +1 tq_SKU001_WH_BJ_WH_SH +1 tq_SKU001_WH_GZ_WH_SH -1 tq_SKU001_WH_SH_WH_BJ -1 tq_SKU001_WH_SH_WH_GZ +1 ei_SKU001_WH_SH -1 sq_SKU001_WH_SH  = 200
 auto_c_000000011: +1 tq_SKU001_WH_BJ_WH_SH -100000 is_SKU001_WH_BJ_WH_SH  <= 0
 auto_c_000000012: +1 tq_SKU001_WH_BJ_WH_SH -10 is_SKU001_WH_BJ_WH_SH  >= 0
 auto_c_000000013: +1 tq_SKU001_WH_GZ_WH_SH -100000 is_SKU001_WH_GZ_WH_SH  <= 0
 auto_c_000000014: +1 tq_SKU001_WH_GZ_WH_SH -10 is_SKU001_WH_GZ_WH_SH  >= 0
 auto_c_000000015: -1 tq_SKU002_WH_BJ_WH_GZ -1 tq_SKU002_WH_BJ_WH_SH +1 tq_SKU002_WH_GZ_WH_BJ +1 tq_SKU002_WH_SH_WH_BJ +1 ei_SKU002_WH_BJ -1 sq_SKU002_WH_BJ  = 600
 auto_c_000000016: +1 tq_SKU002_WH_GZ_WH_BJ -100000 is_SKU002_WH_GZ_WH_BJ  <= 0
 auto_c_000000017: +1 tq_SKU002_WH_GZ_WH_BJ -10 is_SKU002_WH_GZ_WH_BJ  >= 0
 auto_c_000000018: +1 tq_SKU002_WH_SH_WH_BJ -100000 is_SKU002_WH_SH_WH_BJ  <= 0
 auto_c_000000019: +1 tq_SKU002_WH_SH_WH_BJ -10 is_SKU002_WH_SH_WH_BJ  >= 0
 auto_c_000000020: +1 tq_SKU002_WH_BJ_WH_GZ -1 tq_SKU002_WH_GZ_WH_BJ -1 tq_SKU002_WH_GZ_WH_SH +1 tq_SKU002_WH_SH_WH_GZ +1 ei_SKU002_WH_GZ -1 sq_SKU002_WH_GZ  = 20
 auto_c_000000021: +1 tq_SKU002_WH_BJ_WH_GZ -100000 is_SKU002_WH_BJ_WH_GZ  <= 0
 auto_c_000000022: +1 tq_SKU002_WH_BJ_WH_GZ -10 is_SKU002_WH_BJ_WH_GZ  >= 0
 auto_c_000000023: +1 tq_SKU002_WH_SH_WH_GZ -100000 is_SKU002_WH_SH_WH_GZ  <= 0
 auto_c_000000024: +1 tq_SKU002_WH_SH_WH_GZ -10 is_SKU002_WH_SH_WH_GZ  >= 0
 auto_c_000000025: +1 tq_SKU002_WH_BJ_WH_SH +1 tq_SKU002_WH_GZ_WH_SH -1 tq_SKU002_WH_SH_WH_BJ -1 tq_SKU002_WH_SH_WH_GZ +1 ei_SKU002_WH_SH -1 sq_SKU002_WH_SH  = -50
 auto_c_000000026: +1 tq_SKU002_WH_BJ_WH_SH -100000 is_SKU002_WH_BJ_WH_SH  <= 0
 auto_c_000000027: +1 tq_SKU002_WH_BJ_WH_SH -10 is_SKU002_WH_BJ_WH_SH  >= 0
 auto_c_000000028: +1 tq_SKU002_WH_GZ_WH_SH -100000 is_SKU002_WH_GZ_WH_SH  <= 0
 auto_c_000000029: +1 tq_SKU002_WH_GZ_WH_SH -10 is_SKU002_WH_GZ_WH_SH  >= 0
 auto_c_000000030: -1 tq_SKU003_WH_BJ_WH_GZ -1 tq_SKU003_WH_BJ_WH_SH +1 tq_SKU003_WH_GZ_WH_BJ +1 tq_SKU003_WH_SH_WH_BJ +1 ei_SKU003_WH_BJ -1 sq_SKU003_WH_BJ  = 20
 auto_c_000000031: +1 tq_SKU003_WH_GZ_WH_BJ -100000 is_SKU003_WH_GZ_WH_BJ  <= 0
 auto_c_000000032: +1 tq_SKU003_WH_GZ_WH_BJ -10 is_SKU003_WH_GZ_WH_BJ  >= 0
 auto_c_000000033: +1 tq_SKU003_WH_SH_WH_BJ -100000 is_SKU003_WH_SH_WH_BJ  <= 0
 auto_c_000000034: +1 tq_SKU003_WH_SH_WH_BJ -10 is_SKU003_WH_SH_WH_BJ  >= 0
 auto_c_000000035: +1 tq_SKU003_WH_BJ_WH_GZ -1 tq_SKU003_WH_GZ_WH_BJ -1 tq_SKU003_WH_GZ_WH_SH +1 tq_SKU003_WH_SH_WH_GZ +1 ei_SKU003_WH_GZ -1 sq_SKU003_WH_GZ  = 50
 auto_c_000000036: +1 tq_SKU003_WH_BJ_WH_GZ -100000 is_SKU003_WH_BJ_WH_GZ  <= 0
 auto_c_000000037: +1 tq_SKU003_WH_BJ_WH_GZ -10 is_SKU003_WH_BJ_WH_GZ  >= 0
 auto_c_000000038: +1 tq_SKU003_WH_SH_WH_GZ -100000 is_SKU003_WH_SH_WH_GZ  <= 0
 auto_c_000000039: +1 tq_SKU003_WH_SH_WH_GZ -10 is_SKU003_WH_SH_WH_GZ  >= 0
 auto_c_000000040: +1 tq_SKU003_WH_BJ_WH_SH +1 tq_SKU003_WH_GZ_WH_SH -1 tq_SKU003_WH_SH_WH_BJ -1 tq_SKU003_WH_SH_WH_GZ +1 ei_SKU003_WH_SH -1 sq_SKU003_WH_SH  = -370
 auto_c_000000041: +1 tq_SKU003_WH_BJ_WH_SH -100000 is_SKU003_WH_BJ_WH_SH  <= 0
 auto_c_000000042: +1 tq_SKU003_WH_BJ_WH_SH -10 is_SKU003_WH_BJ_WH_SH  >= 0
 auto_c_000000043: +1 tq_SKU003_WH_GZ_WH_SH -100000 is_SKU003_WH_GZ_WH_SH  <= 0
 auto_c_000000044: +1 tq_SKU003_WH_GZ_WH_SH -10 is_SKU003_WH_GZ_WH_SH  >= 0
 auto_c_000000045: -1 tq_SKU004_WH_BJ_WH_GZ -1 tq_SKU004_WH_BJ_WH_SH +1 tq_SKU004_WH_GZ_WH_BJ +1 tq_SKU004_WH_SH_WH_BJ +1 ei_SKU004_WH_BJ -1 sq_SKU004_WH_BJ  = 30
 auto_c_000000046: +1 tq_SKU004_WH_GZ_WH_BJ -100000 is_SKU004_WH_GZ_WH_BJ  <= 0
 auto_c_000000047: +1 tq_SKU004_WH_GZ_WH_BJ -10 is_SKU004_WH_GZ_WH_BJ  >= 0
 auto_c_000000048: +1 tq_SKU004_WH_SH_WH_BJ -100000 is_SKU004_WH_SH_WH_BJ  <= 0
 auto_c_000000049: +1 tq_SKU004_WH_SH_WH_BJ -10 is_SKU004_WH_SH_WH_BJ  >= 0
 auto_c_000000050: +1 tq_SKU004_WH_BJ_WH_GZ -1 tq_SKU004_WH_GZ_WH_BJ -1 tq_SKU004_WH_GZ_WH_SH +1 tq_SKU004_WH_SH_WH_GZ +1 ei_SKU004_WH_GZ -1 sq_SKU004_WH_GZ  = 50
 auto_c_000000051: +1 tq_SKU004_WH_BJ_WH_GZ -100000 is_SKU004_WH_BJ_WH_GZ  <= 0
 auto_c_000000052: +1 tq_SKU004_WH_BJ_WH_GZ -10 is_SKU004_WH_BJ_WH_GZ  >= 0
 auto_c_000000053: +1 tq_SKU004_WH_SH_WH_GZ -100000 is_SKU004_WH_SH_WH_GZ  <= 0
 auto_c_000000054: +1 tq_SKU004_WH_SH_WH_GZ -10 is_SKU004_WH_SH_WH_GZ  >= 0
 auto_c_000000055: +1 tq_SKU004_WH_BJ_WH_SH +1 tq_SKU004_WH_GZ_WH_SH -1 tq_SKU004_WH_SH_WH_BJ -1 tq_SKU004_WH_SH_WH_GZ +1 ei_SKU004_WH_SH -1 sq_SKU004_WH_SH  = 30
 auto_c_000000056: +1 tq_SKU004_WH_BJ_WH_SH -100000 is_SKU004_WH_BJ_WH_SH  <= 0
 auto_c_000000057: +1 tq_SKU004_WH_BJ_WH_SH -10 is_SKU004_WH_BJ_WH_SH  >= 0
 auto_c_000000058: +1 tq_SKU004_WH_GZ_WH_SH -100000 is_SKU004_WH_GZ_WH_SH  <= 0
 auto_c_000000059: +1 tq_SKU004_WH_GZ_WH_SH -10 is_SKU004_WH_GZ_WH_SH  >= 0
 auto_c_000000060: -1 tq_SKU005_WH_BJ_WH_GZ -1 tq_SKU005_WH_BJ_WH_SH +1 tq_SKU005_WH_GZ_WH_BJ +1 tq_SKU005_WH_SH_WH_BJ +1 ei_SKU005_WH_BJ -1 sq_SKU005_WH_BJ  = -20
 auto_c_000000061: +1 tq_SKU005_WH_GZ_WH_BJ -100000 is_SKU005_WH_GZ_WH_BJ  <= 0
 auto_c_000000062: +1 tq_SKU005_WH_GZ_WH_BJ -10 is_SKU005_WH_GZ_WH_BJ  >= 0
 auto_c_000000063: +1 tq_SKU005_WH_SH_WH_BJ -100000 is_SKU005_WH_SH_WH_BJ  <= 0
 auto_c_000000064: +1 tq_SKU005_WH_SH_WH_BJ -10 is_SKU005_WH_SH_WH_BJ  >= 0
 auto_c_000000065: +1 tq_SKU005_WH_BJ_WH_GZ -1 tq_SKU005_WH_GZ_WH_BJ -1 tq_SKU005_WH_GZ_WH_SH +1 tq_SKU005_WH_SH_WH_GZ +1 ei_SKU005_WH_GZ -1 sq_SKU005_WH_GZ  = 50
 auto_c_000000066: +1 tq_SKU005_WH_BJ_WH_GZ -100000 is_SKU005_WH_BJ_WH_GZ  <= 0
 auto_c_000000067: +1 tq_SKU005_WH_BJ_WH_GZ -10 is_SKU005_WH_BJ_WH_GZ  >= 0
 auto_c_000000068: +1 tq_SKU005_WH_SH_WH_GZ -100000 is_SKU005_WH_SH_WH_GZ  <= 0
 auto_c_000000069: +1 tq_SKU005_WH_SH_WH_GZ -10 is_SKU005_WH_SH_WH_GZ  >= 0
 auto_c_000000070: +1 tq_SKU005_WH_BJ_WH_SH +1 tq_SKU005_WH_GZ_WH_SH -1 tq_SKU005_WH_SH_WH_BJ -1 tq_SKU005_WH_SH_WH_GZ +1 ei_SKU005_WH_SH -1 sq_SKU005_WH_SH  = 500
 auto_c_000000071: +1 tq_SKU005_WH_BJ_WH_SH -100000 is_SKU005_WH_BJ_WH_SH  <= 0
 auto_c_000000072: +1 tq_SKU005_WH_BJ_WH_SH -10 is_SKU005_WH_BJ_WH_SH  >= 0
 auto_c_000000073: +1 tq_SKU005_WH_GZ_WH_SH -100000 is_SKU005_WH_GZ_WH_SH  <= 0
 auto_c_000000074: +1 tq_SKU005_WH_GZ_WH_SH -10 is_SKU005_WH_GZ_WH_SH  >= 0
 auto_c_000000075: -1 tq_SKU006_WH_BJ_WH_GZ -1 tq_SKU006_WH_BJ_WH_SH +1 tq_SKU006_WH_GZ_WH_BJ +1 tq_SKU006_WH_SH_WH_BJ +1 ei_SKU006_WH_BJ -1 sq_SKU006_WH_BJ  = 50
 auto_c_000000076: +1 tq_SKU006_WH_GZ_WH_BJ -100000 is_SKU006_WH_GZ_WH_BJ  <= 0
 auto_c_000000077: +1 tq_SKU006_WH_GZ_WH_BJ -10 is_SKU006_WH_GZ_WH_BJ  >= 0
 auto_c_000000078: +1 tq_SKU006_WH_SH_WH_BJ -100000 is_SKU006_WH_SH_WH_BJ  <= 0
 auto_c_000000079: +1 tq_SKU006_WH_SH_WH_BJ -10 is_SKU006_WH_SH_WH_BJ  >= 0
 auto_c_000000080: +1 tq_SKU006_WH_BJ_WH_GZ -1 tq_SKU006_WH_GZ_WH_BJ -1 tq_SKU006_WH_GZ_WH_SH +1 tq_SKU006_WH_SH_WH_GZ +1 ei_SKU006_WH_GZ -1 sq_SKU006_WH_GZ  = 20
 auto_c_000000081: +1 tq_SKU006_WH_BJ_WH_GZ -100000 is_SKU006_WH_BJ_WH_GZ  <= 0
 auto_c_000000082: +1 tq_SKU006_WH_BJ_WH_GZ -10 is_SKU006_WH_BJ_WH_GZ  >= 0
 auto_c_000000083: +1 tq_SKU006_WH_SH_WH_GZ -100000 is_SKU006_WH_SH_WH_GZ  <= 0
 auto_c_000000084: +1 tq_SKU006_WH_SH_WH_GZ -10 is_SKU006_WH_SH_WH_GZ  >= 0
 auto_c_000000085: +1 tq_SKU006_WH_BJ_WH_SH +1 tq_SKU006_WH_GZ_WH_SH -1 tq_SKU006_WH_SH_WH_BJ -1 tq_SKU006_WH_SH_WH_GZ +1 ei_SKU006_WH_SH -1 sq_SKU006_WH_SH  = -20
 auto_c_000000086: +1 tq_SKU006_WH_BJ_WH_SH -100000 is_SKU006_WH_BJ_WH_SH  <= 0
 auto_c_000000087: +1 tq_SKU006_WH_BJ_WH_SH -10 is_SKU006_WH_BJ_WH_SH  >= 0
 auto_c_000000088: +1 tq_SKU006_WH_GZ_WH_SH -100000 is_SKU006_WH_GZ_WH_SH  <= 0
 auto_c_000000089: +1 tq_SKU006_WH_GZ_WH_SH -10 is_SKU006_WH_GZ_WH_SH  >= 0
 auto_c_000000090: +1 sq_SKU001_WH_BJ +1 sq_SKU001_WH_GZ +1 sq_SKU001_WH_SH +1 sq_SKU002_WH_BJ +1 sq_SKU002_WH_GZ +1 sq_SKU002_WH_SH +1 sq_SKU003_WH_BJ +1 sq_SKU003_WH_GZ +1 sq_SKU003_WH_SH +1 sq_SKU004_WH_BJ +1 sq_SKU004_WH_GZ +1 sq_SKU004_WH_SH +1 sq_SKU005_WH_BJ +1 sq_SKU005_WH_GZ +1 sq_SKU005_WH_SH +1 sq_SKU006_WH_BJ +1 sq_SKU006_WH_GZ +1 sq_SKU006_WH_SH  <= 221.5
 auto_c_000000091: +1 ei_SKU001_WH_BJ +1 ei_SKU002_WH_BJ +1 ei_SKU003_WH_BJ +1 ei_SKU004_WH_BJ +1 ei_SKU005_WH_BJ +1 ei_SKU006_WH_BJ  <= 5000
 auto_c_000000092: +1 ei_SKU001_WH_GZ +1 ei_SKU002_WH_GZ +1 ei_SKU003_WH_GZ +1 ei_SKU004_WH_GZ +1 ei_SKU005_WH_GZ +1 ei_SKU006_WH_GZ  <= 5820
 auto_c_000000093: +1 ei_SKU001_WH_SH +1 ei_SKU002_WH_SH +1 ei_SKU003_WH_SH +1 ei_SKU004_WH_SH +1 ei_SKU005_WH_SH +1 ei_SKU006_WH_SH  <= 6000
Bounds
 0 <= tq_SKU001_WH_BJ_WH_GZ <= 100000
 0 <= is_SKU001_WH_BJ_WH_GZ <= 1
 0 <= tq_SKU001_WH_BJ_WH_SH <= 100000
 0 <= is_SKU001_WH_BJ_WH_SH <= 1
 0 <= tq_SKU001_WH_GZ_WH_BJ <= 100000
 0 <= is_SKU001_WH_GZ_WH_BJ <= 1
 0 <= tq_SKU001_WH_GZ_WH_SH <= 100000
 0 <= is_SKU001_WH_GZ_WH_SH <= 1
 0 <= tq_SKU001_WH_SH_WH_BJ <= 100000
 0 <= is_SKU001_WH_SH_WH_BJ <= 1
 0 <= tq_SKU001_WH_SH_WH_GZ <= 100000
 0 <= is_SKU001_WH_SH_WH_GZ <= 1
 0 <= tq_SKU002_WH_BJ_WH_GZ <= 100000
 0 <= is_SKU002_WH_BJ_WH_GZ <= 1
 0 <= tq_SKU002_WH_BJ_WH_SH <= 100000
 0 <= is_SKU002_WH_BJ_WH_SH <= 1
 0 <= tq_SKU002_WH_GZ_WH_BJ <= 100000
 0 <= is_SKU002_WH_GZ_WH_BJ <= 1
 0 <= tq_SKU002_WH_GZ_WH_SH <= 100000
 0 <= is_SKU002_WH_GZ_WH_SH <= 1
 0 <= tq_SKU002_WH_SH_WH_BJ <= 100000
 0 <= is_SKU002_WH_SH_WH_BJ <= 1
 0 <= tq_SKU002_WH_SH_WH_GZ <= 100000
 0 <= is_SKU002_WH_SH_WH_GZ <= 1
 0 <= tq_SKU003_WH_BJ_WH_GZ <= 100000
 0 <= is_SKU003_WH_BJ_WH_GZ <= 1
 0 <= tq_SKU003_WH_BJ_WH_SH <= 100000
 0 <= is_SKU003_WH_BJ_WH_SH <= 1
 0 <= tq_SKU003_WH_GZ_WH_BJ <= 100000
 0 <= is_SKU003_WH_GZ_WH_BJ <= 1
 0 <= tq_SKU003_WH_GZ_WH_SH <= 100000
 0 <= is_SKU003_WH_GZ_WH_SH <= 1
 0 <= tq_SKU003_WH_SH_WH_BJ <= 100000
 0 <= is_SKU003_WH_SH_WH_BJ <= 1
 0 <= tq_SKU003_WH_SH_WH_GZ <= 100000
 0 <= is_SKU003_WH_SH_WH_GZ <= 1
 0 <= tq_SKU004_WH_BJ_WH_GZ <= 100000
 0 <= is_SKU004_WH_BJ_WH_GZ <= 1
 0 <= tq_SKU004_WH_BJ_WH_SH <= 100000
 0 <= is_SKU004_WH_BJ_WH_SH <= 1
 0 <= tq_SKU004_WH_GZ_WH_BJ <= 100000
 0 <= is_SKU004_WH_GZ_WH_BJ <= 1
 0 <= tq_SKU004_WH_GZ_WH_SH <= 100000
 0 <= is_SKU004_WH_GZ_WH_SH <= 1
 0 <= tq_SKU004_WH_SH_WH_BJ <= 100000
 0 <= is_SKU004_WH_SH_WH_BJ <= 1
 0 <= tq_SKU004_WH_SH_WH_GZ <= 100000
 0 <= is_SKU004_WH_SH_WH_GZ <= 1
 0 <= tq_SKU005_WH_BJ_WH_GZ <= 100000
 0 <= is_SKU005_WH_BJ_WH_GZ <= 1
 0 <= tq_SKU005_WH_BJ_WH_SH <= 100000
 0 <= is_SKU005_WH_BJ_WH_SH <= 1
 0 <= tq_SKU005_WH_GZ_WH_BJ <= 100000
 0 <= is_SKU005_WH_GZ_WH_BJ <= 1
 0 <= tq_SKU005_WH_GZ_WH_SH <= 100000
 0 <= is_SKU005_WH_GZ_WH_SH <= 1
 0 <= tq_SKU005_WH_SH_WH_BJ <= 100000
 0 <= is_SKU005_WH_SH_WH_BJ <= 1
 0 <= tq_SKU005_WH_SH_WH_GZ <= 100000
 0 <= is_SKU005_WH_SH_WH_GZ <= 1
 0 <= tq_SKU006_WH_BJ_WH_GZ <= 100000
 0 <= is_SKU006_WH_BJ_WH_GZ <= 1
 0 <= tq_SKU006_WH_BJ_WH_SH <= 100000
 0 <= is_SKU006_WH_BJ_WH_SH <= 1
 0 <= tq_SKU006_WH_GZ_WH_BJ <= 100000
 0 <= is_SKU006_WH_GZ_WH_BJ <= 1
 0 <= tq_SKU006_WH_GZ_WH_SH <= 100000
 0 <= is_SKU006_WH_GZ_WH_SH <= 1
 0 <= tq_SKU006_WH_SH_WH_BJ <= 100000
 0 <= is_SKU006_WH_SH_WH_BJ <= 1
 0 <= tq_SKU006_WH_SH_WH_GZ <= 100000
 0 <= is_SKU006_WH_SH_WH_GZ <= 1
 0 <= ei_SKU001_WH_BJ <= 1000000
 0 <= ei_SKU001_WH_GZ <= 1000000
 0 <= ei_SKU001_WH_SH <= 1000000
 0 <= ei_SKU002_WH_BJ <= 1000000
 0 <= ei_SKU002_WH_GZ <= 1000000
 0 <= ei_SKU002_WH_SH <= 1000000
 0 <= ei_SKU003_WH_BJ <= 1000000
 0 <= ei_SKU003_WH_GZ <= 1000000
 0 <= ei_SKU003_WH_SH <= 1000000
 0 <= ei_SKU004_WH_BJ <= 1000000
 0 <= ei_SKU004_WH_GZ <= 1000000
 0 <= ei_SKU004_WH_SH <= 1000000
 0 <= ei_SKU005_WH_BJ <= 1000000
 0 <= ei_SKU005_WH_GZ <= 1000000
 0 <= ei_SKU005_WH_SH <= 1000000
 0 <= ei_SKU006_WH_BJ <= 1000000
 0 <= ei_SKU006_WH_GZ <= 1000000
 0 <= ei_SKU006_WH_SH <= 1000000
 0 <= sq_SKU001_WH_BJ <= 1000000
 0 <= sq_SKU001_WH_GZ <= 1000000
 0 <= sq_SKU001_WH_SH <= 1000000
 0 <= sq_SKU002_WH_BJ <= 1000000
 0 <= sq_SKU002_WH_GZ <= 1000000
 0 <= sq_SKU002_WH_SH <= 1000000
 0 <= sq_SKU003_WH_BJ <= 1000000
 0 <= sq_SKU003_WH_GZ <= 1000000
 0 <= sq_SKU003_WH_SH <= 1000000
 0 <= sq_SKU004_WH_BJ <= 1000000
 0 <= sq_SKU004_WH_GZ <= 1000000
 0 <= sq_SKU004_WH_SH <= 1000000
 0 <= sq_SKU005_WH_BJ <= 1000000
 0 <= sq_SKU005_WH_GZ <= 1000000
 0 <= sq_SKU005_WH_SH <= 1000000
 0 <= sq_SKU006_WH_BJ <= 1000000
 0 <= sq_SKU006_WH_GZ <= 1000000
 0 <= sq_SKU006_WH_SH <= 1000000
Binaries
 is_SKU001_WH_BJ_WH_GZ
 is_SKU001_WH_BJ_WH_SH
 is_SKU001_WH_GZ_WH_BJ
 is_SKU001_WH_GZ_WH_SH
 is_SKU001_WH_SH_WH_BJ
 is_SKU001_WH_SH_WH_GZ
 is_SKU002_WH_BJ_WH_GZ
 is_SKU002_WH_BJ_WH_SH
 is_SKU002_WH_GZ_WH_BJ
 is_SKU002_WH_GZ_WH_SH
 is_SKU002_WH_SH_WH_BJ
 is_SKU002_WH_SH_WH_GZ
 is_SKU003_WH_BJ_WH_GZ
 is_SKU003_WH_BJ_WH_SH
 is_SKU003_WH_GZ_WH_BJ
 is_SKU003_WH_GZ_WH_SH
 is_SKU003_WH_SH_WH_BJ
 is_SKU003_WH_SH_WH_GZ
 is_SKU004_WH_BJ_WH_GZ
 is_SKU004_WH_BJ_WH_SH
 is_SKU004_WH_GZ_WH_BJ
 is_SKU004_WH_GZ_WH_SH
 is_SKU004_WH_SH_WH_BJ
 is_SKU004_WH_SH_WH_GZ
 is_SKU005_WH_BJ_WH_GZ
 is_SKU005_WH_BJ_WH_SH
 is_SKU005_WH_GZ_WH_BJ
 is_SKU005_WH_GZ_WH_SH
 is_SKU005_WH_SH_WH_BJ
 is_SKU005_WH_SH_WH_GZ
 is_SKU006_WH_BJ_WH_GZ
 is_SKU006_WH_BJ_WH_SH
 is_SKU006_WH_GZ_WH_BJ
 is_SKU006_WH_GZ_WH_SH
 is_SKU006_WH_SH_WH_BJ
 is_SKU006_WH_SH_WH_GZ
Generals
 tq_SKU001_WH_BJ_WH_GZ
 tq_SKU001_WH_BJ_WH_SH
 tq_SKU001_WH_GZ_WH_BJ
 tq_SKU001_WH_GZ_WH_SH
 tq_SKU001_WH_SH_WH_BJ
 tq_SKU001_WH_SH_WH_GZ
 tq_SKU002_WH_BJ_WH_GZ
 tq_SKU002_WH_BJ_WH_SH
 tq_SKU002_WH_GZ_WH_BJ
 tq_SKU002_WH_GZ_WH_SH
 tq_SKU002_WH_SH_WH_BJ
 tq_SKU002_WH_SH_WH_GZ
 tq_SKU003_WH_BJ_WH_GZ
 tq_SKU003_WH_BJ_WH_SH
 tq_SKU003_WH_GZ_WH_BJ
 tq_SKU003_WH_GZ_WH_SH
 tq_SKU003_WH_SH_WH_BJ
 tq_SKU003_WH_SH_WH_GZ
 tq_SKU004_WH_BJ_WH_GZ
 tq_SKU004_WH_BJ_WH_SH
 tq_SKU004_WH_GZ_WH_BJ
 tq_SKU004_WH_GZ_WH_SH
 tq_SKU004_WH_SH_WH_BJ
 tq_SKU004_WH_SH_WH_GZ
 tq_SKU005_WH_BJ_WH_GZ
 tq_SKU005_WH_BJ_WH_SH
 tq_SKU005_WH_GZ_WH_BJ
 tq_SKU005_WH_GZ_WH_SH
 tq_SKU005_WH_SH_WH_BJ
 tq_SKU005_WH_SH_WH_GZ
 tq_SKU006_WH_BJ_WH_GZ
 tq_SKU006_WH_BJ_WH_SH
 tq_SKU006_WH_GZ_WH_BJ
 tq_SKU006_WH_GZ_WH_SH
 tq_SKU006_WH_SH_WH_BJ
 tq_SKU006_WH_SH_WH_GZ
 ei_SKU001_WH_BJ
 ei_SKU001_WH_GZ
 ei_SKU001_WH_SH
 ei_SKU002_WH_BJ
 ei_SKU002_WH_GZ
 ei_SKU002_WH_SH
 ei_SKU003_WH_BJ
 ei_SKU003_WH_GZ
 ei_SKU003_WH_SH
 ei_SKU004_WH_BJ
 ei_SKU004_WH_GZ
 ei_SKU004_WH_SH
 ei_SKU005_WH_BJ
 ei_SKU005_WH_GZ
 ei_SKU005_WH_SH
 ei_SKU006_WH_BJ
 ei_SKU006_WH_GZ
 ei_SKU006_WH_SH
 sq_SKU001_WH_BJ
 sq_SKU001_WH_GZ
 sq_SKU001_WH_SH
 sq_SKU002_WH_BJ
 sq_SKU002_WH_GZ
 sq_SKU002_WH_SH
 sq_SKU003_WH_BJ
 sq_SKU003_WH_GZ
 sq_SKU003_WH_SH
 sq_SKU004_WH_BJ
 sq_SKU004_WH_GZ
 sq_SKU004_WH_SH
 sq_SKU005_WH_BJ
 sq_SKU005_WH_GZ
 sq_SKU005_WH_SH
 sq_SKU006_WH_BJ
 sq_SKU006_WH_GZ
 sq_SKU006_WH_SH
End
